54060481200
50022828494
07282942572
63101055434
32101562565
51090899270
76042073261
41010669379
58102261944
04291577753
77081224881
68053138204
77112388250
20212454253
87092968304
70072995300
99090881455
82121238674
36112084559
32051853825
97021517211
31032117750
36092427663
09261257512
27112299764
57042289669
03230765477
92050813941
66010878613
55021067396
86112772787
45062833140
05302544898
03311468851
92110535947
98011966790
69081662464
62051178558
25111343248
99091848152
